p cnf 377 264
c p distribution  0.875 0.125
c p distribution  0.875 0.125
c p distribution  0.875 0.125
c p distribution  0.875 0.125
c p distribution  0.875 0.125
c p distribution  0.875 0.125
c p distribution  0.875 0.125
c p distribution  0.875 0.125
c p distribution  0.875 0.125
c p distribution  0.875 0.125
c p distribution  0.875 0.125
c p distribution  0.875 0.125
c p distribution  0.875 0.125
c p distribution  0.875 0.125
c p distribution  0.875 0.125
c p distribution  0.875 0.125
c p distribution  0.875 0.125
c p distribution  0.875 0.125
c p distribution  0.875 0.125
c p distribution  0.875 0.125
c p distribution  0.875 0.125
c p distribution  0.875 0.125
c p distribution  0.875 0.125
c p distribution  0.875 0.125
c p distribution  0.875 0.125
c p distribution  0.875 0.125
c p distribution  0.875 0.125
c p distribution  0.875 0.125
c p distribution  0.875 0.125
c p distribution  0.875 0.125
c p distribution  0.875 0.125
c p distribution  0.875 0.125
c p distribution  0.875 0.125
c p distribution  0.875 0.125
c p distribution  0.875 0.125
c p distribution  0.875 0.125
c p distribution  0.875 0.125
c p distribution  0.875 0.125
c p distribution  0.875 0.125
c p distribution  0.875 0.125
c p distribution  0.875 0.125
c p distribution  0.875 0.125
c p distribution  0.875 0.125
c p distribution  0.875 0.125
c p distribution  0.875 0.125
c p distribution  0.875 0.125
c p distribution  0.875 0.125
c p distribution  0.875 0.125
c p distribution  0.875 0.125
c p distribution  0.875 0.125
c p distribution  0.875 0.125
c p distribution  0.875 0.125
c p distribution  0.875 0.125
c p distribution  0.875 0.125
c p distribution  0.875 0.125
c p distribution  0.875 0.125
c p distribution  0.875 0.125
c p distribution  0.875 0.125
c p distribution  0.875 0.125
c p distribution  0.875 0.125
c p distribution  0.875 0.125
c p distribution  0.875 0.125
c p distribution  0.875 0.125
c p distribution  0.875 0.125
c p distribution  0.875 0.125
c p distribution  0.875 0.125
c p distribution  0.875 0.125
c p distribution  0.875 0.125
c p distribution  0.875 0.125
c p distribution  0.875 0.125
c p distribution  0.875 0.125
c p distribution  0.875 0.125
c p distribution  0.875 0.125
c p distribution  0.875 0.125
c p distribution  0.875 0.125
c p distribution  0.875 0.125
c p distribution  0.875 0.125
c p distribution  0.875 0.125
c p distribution  0.875 0.125
c p distribution  0.875 0.125
c p distribution  0.875 0.125
c p distribution  0.875 0.125
c p distribution  0.875 0.125
c p distribution  0.875 0.125
c p distribution  0.875 0.125
c p distribution  0.875 0.125
c p distribution  0.875 0.125
c p distribution  0.875 0.125
c p distribution  0.875 0.125
c p distribution  0.875 0.125
c p distribution  0.875 0.125
c p distribution  0.875 0.125
c p distribution  0.875 0.125
c p distribution  0.875 0.125
c p distribution  0.875 0.125
c p distribution  0.875 0.125
c p distribution  0.875 0.125
c p distribution  0.875 0.125
c p distribution  0.875 0.125
c p distribution  0.875 0.125
c p distribution  0.875 0.125
c p distribution  0.875 0.125
c p distribution  0.875 0.125
c p distribution  0.875 0.125
c p distribution  0.875 0.125
c p distribution  0.875 0.125
c p distribution  0.875 0.125
c p distribution  0.875 0.125
c p distribution  0.875 0.125
c p distribution  0.875 0.125
c p distribution  0.875 0.125
c p distribution  0.875 0.125
c p distribution  0.875 0.125
c p distribution  0.875 0.125
c p distribution  0.875 0.125
c p distribution  0.875 0.125
c p distribution  0.875 0.125
c p distribution  0.875 0.125
c p distribution  0.875 0.125
c p distribution  0.875 0.125
c p distribution  0.875 0.125
c p distribution  0.875 0.125
c p distribution  0.875 0.125
c p distribution  0.875 0.125
c p distribution  0.875 0.125
c p distribution  0.875 0.125
c p distribution  0.875 0.125
c p distribution  0.875 0.125
c p distribution  0.875 0.125
c p distribution  0.875 0.125
c p distribution  0.875 0.125
290 0
-351 0
348 -364 -1 0
364 -348 -1 0
308 -300 -3 0
300 -308 -3 0
319 -272 -5 0
272 -319 -5 0
292 -338 -7 0
338 -292 -7 0
281 -263 -9 0
263 -281 -9 0
343 -351 -11 0
351 -343 -11 0
290 -292 -13 0
292 -290 -13 0
346 -280 -15 0
280 -346 -15 0
347 -279 -17 0
279 -347 -17 0
307 -337 -19 0
337 -307 -19 0
345 -324 -21 0
324 -345 -21 0
328 -290 -23 0
290 -328 -23 0
289 -304 -25 0
304 -289 -25 0
342 -312 -27 0
312 -342 -27 0
311 -312 -29 0
312 -311 -29 0
373 -277 -31 0
277 -373 -31 0
352 -282 -33 0
282 -352 -33 0
313 -305 -35 0
305 -313 -35 0
304 -265 -37 0
265 -304 -37 0
325 -322 -39 0
322 -325 -39 0
334 -346 -41 0
346 -334 -41 0
324 -291 -43 0
291 -324 -43 0
264 -329 -45 0
329 -264 -45 0
276 -350 -47 0
350 -276 -47 0
365 -293 -49 0
293 -365 -49 0
352 -345 -51 0
345 -352 -51 0
332 -283 -53 0
283 -332 -53 0
366 -272 -55 0
272 -366 -55 0
288 -364 -57 0
364 -288 -57 0
288 -303 -59 0
303 -288 -59 0
321 -295 -61 0
295 -321 -61 0
343 -316 -63 0
316 -343 -63 0
327 -364 -65 0
364 -327 -65 0
325 -322 -67 0
322 -325 -67 0
290 -325 -69 0
325 -290 -69 0
286 -320 -71 0
320 -286 -71 0
285 -303 -73 0
303 -285 -73 0
269 -264 -75 0
264 -269 -75 0
322 -350 -77 0
350 -322 -77 0
348 -344 -79 0
344 -348 -79 0
342 -370 -81 0
370 -342 -81 0
297 -308 -83 0
308 -297 -83 0
306 -356 -85 0
356 -306 -85 0
293 -339 -87 0
339 -293 -87 0
288 -272 -89 0
272 -288 -89 0
331 -323 -91 0
323 -331 -91 0
292 -364 -93 0
364 -292 -93 0
307 -282 -95 0
282 -307 -95 0
376 -301 -97 0
301 -376 -97 0
283 -264 -99 0
264 -283 -99 0
367 -274 -101 0
274 -367 -101 0
374 -284 -103 0
284 -374 -103 0
319 -303 -105 0
303 -319 -105 0
366 -365 -107 0
365 -366 -107 0
310 -350 -109 0
350 -310 -109 0
316 -377 -111 0
377 -316 -111 0
330 -337 -113 0
337 -330 -113 0
275 -295 -115 0
295 -275 -115 0
357 -263 -117 0
263 -357 -117 0
276 -273 -119 0
273 -276 -119 0
280 -308 -121 0
308 -280 -121 0
344 -368 -123 0
368 -344 -123 0
377 -374 -125 0
374 -377 -125 0
375 -304 -127 0
304 -375 -127 0
309 -368 -129 0
368 -309 -129 0
369 -377 -131 0
377 -369 -131 0
360 -300 -133 0
300 -360 -133 0
340 -286 -135 0
286 -340 -135 0
311 -371 -137 0
371 -311 -137 0
354 -327 -139 0
327 -354 -139 0
271 -295 -141 0
295 -271 -141 0
341 -359 -143 0
359 -341 -143 0
335 -264 -145 0
264 -335 -145 0
296 -329 -147 0
329 -296 -147 0
283 -264 -149 0
264 -283 -149 0
306 -355 -151 0
355 -306 -151 0
302 -323 -153 0
323 -302 -153 0
298 -369 -155 0
369 -298 -155 0
335 -284 -157 0
284 -335 -157 0
291 -356 -159 0
356 -291 -159 0
372 -318 -161 0
318 -372 -161 0
269 -270 -163 0
270 -269 -163 0
360 -364 -165 0
364 -360 -165 0
362 -293 -167 0
293 -362 -167 0
302 -337 -169 0
337 -302 -169 0
316 -287 -171 0
287 -316 -171 0
373 -277 -173 0
277 -373 -173 0
278 -305 -175 0
305 -278 -175 0
288 -364 -177 0
364 -288 -177 0
292 -318 -179 0
318 -292 -179 0
342 -310 -181 0
310 -342 -181 0
294 -284 -183 0
284 -294 -183 0
323 -355 -185 0
355 -323 -185 0
297 -275 -187 0
275 -297 -187 0
343 -315 -189 0
315 -343 -189 0
315 -295 -191 0
295 -315 -191 0
314 -331 -193 0
331 -314 -193 0
359 -320 -195 0
320 -359 -195 0
336 -278 -197 0
278 -336 -197 0
266 -287 -199 0
287 -266 -199 0
281 -282 -201 0
282 -281 -201 0
309 -279 -203 0
279 -309 -203 0
269 -316 -205 0
316 -269 -205 0
358 -373 -207 0
373 -358 -207 0
308 -333 -209 0
333 -308 -209 0
361 -340 -211 0
340 -361 -211 0
266 -270 -213 0
270 -266 -213 0
290 -370 -215 0
370 -290 -215 0
370 -312 -217 0
312 -370 -217 0
297 -270 -219 0
270 -297 -219 0
365 -339 -221 0
339 -365 -221 0
358 -314 -223 0
314 -358 -223 0
375 -355 -225 0
355 -375 -225 0
361 -320 -227 0
320 -361 -227 0
311 -371 -229 0
371 -311 -229 0
327 -286 -231 0
286 -327 -231 0
338 -317 -233 0
317 -338 -233 0
345 -302 -235 0
302 -345 -235 0
334 -301 -237 0
301 -334 -237 0
335 -329 -239 0
329 -335 -239 0
271 -275 -241 0
275 -271 -241 0
315 -271 -243 0
271 -315 -243 0
319 -339 -245 0
339 -319 -245 0
358 -289 -247 0
289 -358 -247 0
363 -285 -249 0
285 -363 -249 0
358 -277 -251 0
277 -358 -251 0
321 -351 -253 0
351 -321 -253 0
281 -263 -255 0
263 -281 -255 0
310 -267 -257 0
267 -310 -257 0
361 -340 -259 0
340 -361 -259 0
314 -331 -261 0
331 -314 -261 0

